<number of tasks>
20

<cycle time>
1000

<order strength>
0,279


<task times>
1 467
2 287
3 149
4 495
5 501
6 391
7 494
8 138
9 26
10 376
11 233
12 29
13 189
14 260
15 175
16 65
17 132
18 253
19 177
20 40

<precedence relations>
1,7
2,7
3,7
4,7
6,8
6,9
6,10
7,11
7,12
7,13
7,14
8,15
8,16
12,18
14,19
15,17
18,20

<end>
